SDVRP instances/custom_instances/p01_13_split0.vrp
NAME:p01_13_split
BEST_KNOWN: 0
COMMENT: 0
DIMENSION: 201
CAPACITY: 160
EDGE_WEIGHT_FORMAT: FUNCTION
EDGE_WEIGHT_TYPE: EXACT_2D
NODE_COORD_SECTION
1 0.00000 0.00000
2 -29 -33
3 -29 -33
4 -29 -33
5 -29 -33
6 -6 24
7 -6 24
8 -6 24
9 -6 24
10 4 32
11 4 32
12 4 32
13 4 32
14 4 32
15 26 41
16 26 41
17 26 41
18 -37 46
19 -37 46
20 -37 46
21 -37 46
22 -37 46
23 -13 -24
24 -13 -24
25 -13 -24
26 -13 -24
27 39 -48
28 39 -48
29 39 -48
30 32 -27
31 32 -27
32 32 -27
33 32 -27
34 2 19
35 2 19
36 2 19
37 2 19
38 46 39
39 46 39
40 27 -34
41 27 -34
42 27 -34
43 27 -34
44 -45 -4
45 -45 -4
46 -45 -4
47 -29 27
48 -29 27
49 -29 27
50 -29 27
51 -49 25
52 -49 25
53 -30 37
54 -30 37
55 -6 -17
56 -6 -17
57 -6 -17
58 -6 -17
59 26 -25
60 26 -25
61 26 -25
62 26 -25
63 26 -25
64 -39 36
65 -39 36
66 -39 36
67 -39 36
68 -45 -46
69 -45 -46
70 -45 -46
71 -45 -46
72 -45 -46
73 -45 -46
74 5 -29
75 5 -29
76 5 -29
77 5 -29
78 -37 31
79 -37 31
80 -37 31
81 -35 -20
82 -35 -20
83 -35 -20
84 -35 -20
85 -35 -20
86 -23 -33
87 -23 -33
88 -23 -33
89 -23 -33
90 -23 -33
91 20 -44
92 20 -44
93 20 -44
94 11 -3
95 11 -3
96 11 -3
97 11 -3
98 11 -3
99 11 -3
100 -34 -34
101 -34 -34
102 -34 -34
103 -34 -34
104 45 -12
105 45 -12
106 45 -12
107 -1 -49
108 -29 39
109 -29 39
110 -29 39
111 -29 39
112 -29 39
113 -16 -4
114 -16 -4
115 -16 -4
116 -16 -4
117 7 -1
118 7 -1
119 7 -1
120 -22 -7
121 -22 -7
122 -22 -7
123 -22 -7
124 -17 35
125 -17 35
126 -17 35
127 -17 35
128 -17 35
129 36 47
130 36 47
131 36 47
132 -11 32
133 -11 32
134 27 -17
135 27 -17
136 27 -17
137 27 -17
138 27 -17
139 3 7
140 3 7
141 3 7
142 3 7
143 -35 -28
144 -35 -28
145 -35 -28
146 -35 -28
147 -35 -28
148 -9 -26
149 -9 -26
150 -9 -26
151 -9 -26
152 -9 -26
153 -9 -26
154 -9 -26
155 12 17
156 12 17
157 12 17
158 12 17
159 12 17
160 -10 -14
161 -10 -14
162 -10 -14
163 2 26
164 2 26
165 2 26
166 2 26
167 2 26
168 2 26
169 -2 -12
170 -2 -12
171 -2 -12
172 -2 -12
173 5 17
174 5 17
175 5 17
176 -38 31
177 -38 31
178 -38 31
179 -38 31
180 -45 -8
181 -45 -8
182 -45 -8
183 -45 -8
184 32 17
185 32 17
186 32 17
187 32 17
188 32 17
189 0 -33
190 0 -33
191 0 -33
192 0 -33
193 -27 -28
194 -27 -28
195 -27 -28
196 -27 -28
197 -27 -28
198 3 -30
199 3 -30
200 3 -30
201 3 -30
DEMAND_SECTION
1 0
2 32
3 16
4 2
5 2
6 32
7 16
8 8
9 2
10 32
11 8
12 2
13 2
14 2
15 32
16 16
17 2
18 32
19 16
20 8
21 2
22 2
23 16
24 2
25 2
26 1
27 32
28 32
29 8
30 16
31 2
32 2
33 2
34 16
35 8
36 2
37 1
38 32
39 1
40 32
41 16
42 2
43 2
44 16
45 8
46 1
47 32
48 32
49 2
50 1
51 32
52 16
53 32
54 16
55 32
56 32
57 2
58 2
59 32
60 8
61 2
62 2
63 2
64 16
65 8
66 2
67 2
68 32
69 32
70 8
71 2
72 2
73 1
74 32
75 32
76 8
77 2
78 32
79 32
80 1
81 16
82 2
83 2
84 2
85 1
86 32
87 8
88 2
89 2
90 2
91 32
92 2
93 1
94 32
95 16
96 8
97 2
98 2
99 2
100 16
101 8
102 2
103 1
104 32
105 32
106 8
107 32
108 32
109 16
110 8
111 2
112 2
113 16
114 8
115 2
116 2
117 32
118 32
119 1
120 32
121 32
122 8
123 2
124 32
125 8
126 2
127 2
128 1
129 32
130 16
131 2
132 32
133 2
134 32
135 16
136 8
137 2
138 1
139 16
140 8
141 2
142 1
143 32
144 32
145 8
146 2
147 1
148 32
149 32
150 8
151 2
152 2
153 2
154 1
155 16
156 8
157 2
158 2
159 2
160 16
161 8
162 1
163 32
164 16
165 8
166 2
167 2
168 1
169 32
170 32
171 2
172 2
173 32
174 32
175 1
176 32
177 16
178 2
179 1
180 32
181 8
182 2
183 2
184 32
185 32
186 8
187 2
188 1
189 16
190 2
191 2
192 2
193 32
194 8
195 2
196 2
197 1
198 32
199 16
200 8
201 1
DEPOT_SECTION
1
-1
EOF