SDVRP instances/custom_instances/p01_13_split0.sol
200 -2 142 80 83 82 81 84 180 181 182 179 43 44 45 115 112 -8 6 7 5 132 131 13 11 9 10 12 167 165 138 140 -22 24 25 23 86 88 85 87 89 1 4 3 192 159 160 161 -35 33 34 36 164 166 163 162 173 174 172 139 141 -37 38 130 128 129 15 16 14 155 158 154 -42 40 41 26 27 28 90 91 92 106 -49 48 47 46 52 53 124 127 123 125 126 -51 50 65 66 63 64 175 178 176 177 79 77 -54 56 57 55 151 147 152 148 150 149 153 -62 58 60 61 59 39 30 31 29 32 136 137 134 135 133 -75 74 76 73 200 198 197 199 189 190 188 191 -78 17 18 19 20 21 107 108 111 110 109 -95 96 98 94 93 97 117 116 118 -103 104 105 184 187 186 185 183 156 157 -113 114 119 120 121 122 168 171 170 169 -144 145 143 146 72 67 70 68 71 69 100 101 102 99 194 196 195 193 0 





OBJ=
1534.126
BEST_KNOWN=
0.000